--------------------------------------------------
s SATISFIABLE
benchmarks_SAT/INST_16x16/55/inst16x16_55_0.cnf : 25 ms.
--------------------------------------------------
s SATISFIABLE
benchmarks_SAT/INST_16x16/55/inst16x16_55_10.cnf : 26 ms.
--------------------------------------------------
s SATISFIABLE
benchmarks_SAT/INST_16x16/55/inst16x16_55_11.cnf : 30 ms.
--------------------------------------------------
s SATISFIABLE
benchmarks_SAT/INST_16x16/55/inst16x16_55_12.cnf : 31 ms.
--------------------------------------------------
s SATISFIABLE
benchmarks_SAT/INST_16x16/55/inst16x16_55_13.cnf : 25 ms.
--------------------------------------------------
s SATISFIABLE
benchmarks_SAT/INST_16x16/55/inst16x16_55_14.cnf : 24 ms.
--------------------------------------------------
s SATISFIABLE
benchmarks_SAT/INST_16x16/55/inst16x16_55_15.cnf : 30 ms.
--------------------------------------------------
s SATISFIABLE
benchmarks_SAT/INST_16x16/55/inst16x16_55_16.cnf : 28 ms.
--------------------------------------------------
s SATISFIABLE
benchmarks_SAT/INST_16x16/55/inst16x16_55_17.cnf : 28 ms.
--------------------------------------------------
s SATISFIABLE
benchmarks_SAT/INST_16x16/55/inst16x16_55_18.cnf : 34 ms.
--------------------------------------------------
s SATISFIABLE
benchmarks_SAT/INST_16x16/55/inst16x16_55_19.cnf : 28 ms.
--------------------------------------------------
s SATISFIABLE
benchmarks_SAT/INST_16x16/55/inst16x16_55_1.cnf : 25 ms.
--------------------------------------------------
s SATISFIABLE
benchmarks_SAT/INST_16x16/55/inst16x16_55_20.cnf : 26 ms.
--------------------------------------------------
s SATISFIABLE
benchmarks_SAT/INST_16x16/55/inst16x16_55_21.cnf : 27 ms.
--------------------------------------------------
s SATISFIABLE
benchmarks_SAT/INST_16x16/55/inst16x16_55_22.cnf : 26 ms.
--------------------------------------------------
s SATISFIABLE
benchmarks_SAT/INST_16x16/55/inst16x16_55_23.cnf : 25 ms.
--------------------------------------------------
s SATISFIABLE
benchmarks_SAT/INST_16x16/55/inst16x16_55_24.cnf : 26 ms.
--------------------------------------------------
s SATISFIABLE
benchmarks_SAT/INST_16x16/55/inst16x16_55_25.cnf : 25 ms.
--------------------------------------------------
s SATISFIABLE
benchmarks_SAT/INST_16x16/55/inst16x16_55_26.cnf : 27 ms.
--------------------------------------------------
s SATISFIABLE
benchmarks_SAT/INST_16x16/55/inst16x16_55_27.cnf : 29 ms.
--------------------------------------------------
s SATISFIABLE
benchmarks_SAT/INST_16x16/55/inst16x16_55_28.cnf : 27 ms.
--------------------------------------------------
s SATISFIABLE
benchmarks_SAT/INST_16x16/55/inst16x16_55_29.cnf : 27 ms.
--------------------------------------------------
s SATISFIABLE
benchmarks_SAT/INST_16x16/55/inst16x16_55_2.cnf : 27 ms.
--------------------------------------------------
s SATISFIABLE
benchmarks_SAT/INST_16x16/55/inst16x16_55_30.cnf : 25 ms.
--------------------------------------------------
s SATISFIABLE
benchmarks_SAT/INST_16x16/55/inst16x16_55_31.cnf : 24 ms.
--------------------------------------------------
s SATISFIABLE
benchmarks_SAT/INST_16x16/55/inst16x16_55_32.cnf : 25 ms.
--------------------------------------------------
s SATISFIABLE
benchmarks_SAT/INST_16x16/55/inst16x16_55_33.cnf : 25 ms.
--------------------------------------------------
s SATISFIABLE
benchmarks_SAT/INST_16x16/55/inst16x16_55_34.cnf : 25 ms.
--------------------------------------------------
s SATISFIABLE
benchmarks_SAT/INST_16x16/55/inst16x16_55_35.cnf : 25 ms.
--------------------------------------------------
s SATISFIABLE
benchmarks_SAT/INST_16x16/55/inst16x16_55_36.cnf : 26 ms.
--------------------------------------------------
s SATISFIABLE
benchmarks_SAT/INST_16x16/55/inst16x16_55_37.cnf : 25 ms.
--------------------------------------------------
s SATISFIABLE
benchmarks_SAT/INST_16x16/55/inst16x16_55_38.cnf : 25 ms.
--------------------------------------------------
s SATISFIABLE
benchmarks_SAT/INST_16x16/55/inst16x16_55_39.cnf : 25 ms.
--------------------------------------------------
s SATISFIABLE
benchmarks_SAT/INST_16x16/55/inst16x16_55_3.cnf : 24 ms.
--------------------------------------------------
s SATISFIABLE
benchmarks_SAT/INST_16x16/55/inst16x16_55_40.cnf : 27 ms.
--------------------------------------------------
s SATISFIABLE
benchmarks_SAT/INST_16x16/55/inst16x16_55_41.cnf : 27 ms.
--------------------------------------------------
s SATISFIABLE
benchmarks_SAT/INST_16x16/55/inst16x16_55_42.cnf : 25 ms.
--------------------------------------------------
s SATISFIABLE
benchmarks_SAT/INST_16x16/55/inst16x16_55_43.cnf : 27 ms.
--------------------------------------------------
s SATISFIABLE
benchmarks_SAT/INST_16x16/55/inst16x16_55_44.cnf : 25 ms.
--------------------------------------------------
s SATISFIABLE
benchmarks_SAT/INST_16x16/55/inst16x16_55_45.cnf : 25 ms.
--------------------------------------------------
s SATISFIABLE
benchmarks_SAT/INST_16x16/55/inst16x16_55_46.cnf : 26 ms.
--------------------------------------------------
s SATISFIABLE
benchmarks_SAT/INST_16x16/55/inst16x16_55_47.cnf : 25 ms.
--------------------------------------------------
s SATISFIABLE
benchmarks_SAT/INST_16x16/55/inst16x16_55_48.cnf : 25 ms.
--------------------------------------------------
s SATISFIABLE
benchmarks_SAT/INST_16x16/55/inst16x16_55_49.cnf : 25 ms.
--------------------------------------------------
s SATISFIABLE
benchmarks_SAT/INST_16x16/55/inst16x16_55_4.cnf : 26 ms.
--------------------------------------------------
s SATISFIABLE
benchmarks_SAT/INST_16x16/55/inst16x16_55_50.cnf : 25 ms.
--------------------------------------------------
s SATISFIABLE
benchmarks_SAT/INST_16x16/55/inst16x16_55_51.cnf : 26 ms.
--------------------------------------------------
s SATISFIABLE
benchmarks_SAT/INST_16x16/55/inst16x16_55_52.cnf : 25 ms.
--------------------------------------------------
s SATISFIABLE
benchmarks_SAT/INST_16x16/55/inst16x16_55_53.cnf : 24 ms.
--------------------------------------------------
s SATISFIABLE
benchmarks_SAT/INST_16x16/55/inst16x16_55_54.cnf : 25 ms.
--------------------------------------------------
s SATISFIABLE
benchmarks_SAT/INST_16x16/55/inst16x16_55_55.cnf : 28 ms.
--------------------------------------------------
s SATISFIABLE
benchmarks_SAT/INST_16x16/55/inst16x16_55_56.cnf : 25 ms.
--------------------------------------------------
s SATISFIABLE
benchmarks_SAT/INST_16x16/55/inst16x16_55_57.cnf : 25 ms.
--------------------------------------------------
s SATISFIABLE
benchmarks_SAT/INST_16x16/55/inst16x16_55_58.cnf : 30 ms.
--------------------------------------------------
s SATISFIABLE
benchmarks_SAT/INST_16x16/55/inst16x16_55_59.cnf : 25 ms.
--------------------------------------------------
s SATISFIABLE
benchmarks_SAT/INST_16x16/55/inst16x16_55_5.cnf : 30 ms.
--------------------------------------------------
s SATISFIABLE
benchmarks_SAT/INST_16x16/55/inst16x16_55_60.cnf : 24 ms.
--------------------------------------------------
s SATISFIABLE
benchmarks_SAT/INST_16x16/55/inst16x16_55_61.cnf : 24 ms.
--------------------------------------------------
s SATISFIABLE
benchmarks_SAT/INST_16x16/55/inst16x16_55_62.cnf : 26 ms.
--------------------------------------------------
s SATISFIABLE
benchmarks_SAT/INST_16x16/55/inst16x16_55_63.cnf : 28 ms.
--------------------------------------------------
s SATISFIABLE
benchmarks_SAT/INST_16x16/55/inst16x16_55_64.cnf : 25 ms.
--------------------------------------------------
s SATISFIABLE
benchmarks_SAT/INST_16x16/55/inst16x16_55_65.cnf : 29 ms.
--------------------------------------------------
s SATISFIABLE
benchmarks_SAT/INST_16x16/55/inst16x16_55_66.cnf : 24 ms.
--------------------------------------------------
s SATISFIABLE
benchmarks_SAT/INST_16x16/55/inst16x16_55_67.cnf : 29 ms.
--------------------------------------------------
s SATISFIABLE
benchmarks_SAT/INST_16x16/55/inst16x16_55_68.cnf : 31 ms.
--------------------------------------------------
s SATISFIABLE
benchmarks_SAT/INST_16x16/55/inst16x16_55_69.cnf : 31 ms.
--------------------------------------------------
s SATISFIABLE
benchmarks_SAT/INST_16x16/55/inst16x16_55_6.cnf : 33 ms.
--------------------------------------------------
s SATISFIABLE
benchmarks_SAT/INST_16x16/55/inst16x16_55_70.cnf : 31 ms.
--------------------------------------------------
s SATISFIABLE
benchmarks_SAT/INST_16x16/55/inst16x16_55_71.cnf : 25 ms.
--------------------------------------------------
s SATISFIABLE
benchmarks_SAT/INST_16x16/55/inst16x16_55_72.cnf : 25 ms.
--------------------------------------------------
s SATISFIABLE
benchmarks_SAT/INST_16x16/55/inst16x16_55_73.cnf : 26 ms.
--------------------------------------------------
s SATISFIABLE
benchmarks_SAT/INST_16x16/55/inst16x16_55_74.cnf : 29 ms.
--------------------------------------------------
s SATISFIABLE
benchmarks_SAT/INST_16x16/55/inst16x16_55_75.cnf : 30 ms.
--------------------------------------------------
s SATISFIABLE
benchmarks_SAT/INST_16x16/55/inst16x16_55_76.cnf : 32 ms.
--------------------------------------------------
s SATISFIABLE
benchmarks_SAT/INST_16x16/55/inst16x16_55_77.cnf : 26 ms.
--------------------------------------------------
s SATISFIABLE
benchmarks_SAT/INST_16x16/55/inst16x16_55_78.cnf : 25 ms.
--------------------------------------------------
s SATISFIABLE
benchmarks_SAT/INST_16x16/55/inst16x16_55_79.cnf : 32 ms.
--------------------------------------------------
s SATISFIABLE
benchmarks_SAT/INST_16x16/55/inst16x16_55_7.cnf : 26 ms.
--------------------------------------------------
s SATISFIABLE
benchmarks_SAT/INST_16x16/55/inst16x16_55_80.cnf : 32 ms.
--------------------------------------------------
s SATISFIABLE
benchmarks_SAT/INST_16x16/55/inst16x16_55_81.cnf : 32 ms.
--------------------------------------------------
s SATISFIABLE
benchmarks_SAT/INST_16x16/55/inst16x16_55_82.cnf : 34 ms.
--------------------------------------------------
s SATISFIABLE
benchmarks_SAT/INST_16x16/55/inst16x16_55_83.cnf : 27 ms.
--------------------------------------------------
s SATISFIABLE
benchmarks_SAT/INST_16x16/55/inst16x16_55_84.cnf : 26 ms.
--------------------------------------------------
s SATISFIABLE
benchmarks_SAT/INST_16x16/55/inst16x16_55_85.cnf : 30 ms.
--------------------------------------------------
s SATISFIABLE
benchmarks_SAT/INST_16x16/55/inst16x16_55_86.cnf : 26 ms.
--------------------------------------------------
s SATISFIABLE
benchmarks_SAT/INST_16x16/55/inst16x16_55_87.cnf : 26 ms.
--------------------------------------------------
s SATISFIABLE
benchmarks_SAT/INST_16x16/55/inst16x16_55_88.cnf : 33 ms.
--------------------------------------------------
s SATISFIABLE
benchmarks_SAT/INST_16x16/55/inst16x16_55_89.cnf : 33 ms.
--------------------------------------------------
s SATISFIABLE
benchmarks_SAT/INST_16x16/55/inst16x16_55_8.cnf : 34 ms.
--------------------------------------------------
s SATISFIABLE
benchmarks_SAT/INST_16x16/55/inst16x16_55_90.cnf : 29 ms.
--------------------------------------------------
s SATISFIABLE
benchmarks_SAT/INST_16x16/55/inst16x16_55_91.cnf : 26 ms.
--------------------------------------------------
s SATISFIABLE
benchmarks_SAT/INST_16x16/55/inst16x16_55_92.cnf : 28 ms.
--------------------------------------------------
s SATISFIABLE
benchmarks_SAT/INST_16x16/55/inst16x16_55_93.cnf : 32 ms.
--------------------------------------------------
s SATISFIABLE
benchmarks_SAT/INST_16x16/55/inst16x16_55_94.cnf : 31 ms.
--------------------------------------------------
s SATISFIABLE
benchmarks_SAT/INST_16x16/55/inst16x16_55_95.cnf : 33 ms.
--------------------------------------------------
s SATISFIABLE
benchmarks_SAT/INST_16x16/55/inst16x16_55_96.cnf : 27 ms.
--------------------------------------------------
s SATISFIABLE
benchmarks_SAT/INST_16x16/55/inst16x16_55_97.cnf : 26 ms.
--------------------------------------------------
s SATISFIABLE
benchmarks_SAT/INST_16x16/55/inst16x16_55_98.cnf : 33 ms.
--------------------------------------------------
s SATISFIABLE
benchmarks_SAT/INST_16x16/55/inst16x16_55_99.cnf : 31 ms.
--------------------------------------------------
s SATISFIABLE
benchmarks_SAT/INST_16x16/55/inst16x16_55_9.cnf : 28 ms.
